rcpsp/heur_output_or_constraints/Log=2/heurj90.txt
encoding rcpsp/j90.sm/j906_10.sm nv: 1741428 nc: 3629835 enctime: 38.02
encoding rcpsp/j90.sm/j906_10.sm nv: 228384 nc: 472572 enctime: 3.05
c File: j906_10.smnaiveor2.wcnf
c timeout
c final solution cost: 230
c CPU time: 65.733958
s UNKNOWN

c File: j906_10.smor2.wcnf
c timeout
c final solution cost: 64
c CPU time: 60.421584
s UNKNOWN


rcpsp/heur_output_or_constraints/Log=2/heurj90.txt
encoding rcpsp/j90.sm/j906_1.sm nv: 1408808 nc: 2899283 enctime: 31.25
encoding rcpsp/j90.sm/j906_1.sm nv: 206092 nc: 421516 enctime: 3.03
c File: j906_1.smnaiveor2.wcnf
c optimal
c final solution cost: 64
c CPU time: 6.017000
s OPTIMUM FOUND

c File: j906_1.smor2.wcnf
c optimal
c final solution cost: 64
c CPU time: 0.629372
s OPTIMUM FOUND


rcpsp/heur_output_or_constraints/Log=2/heurj90.txt
encoding rcpsp/j90.sm/j906_2.sm nv: 1550172 nc: 3205106 enctime: 30.70
encoding rcpsp/j90.sm/j906_2.sm nv: 232212 nc: 477206 enctime: 3.84
c File: j906_2.smnaiveor2.wcnf
c optimal
c final solution cost: 55
c CPU time: 16.877300
s OPTIMUM FOUND

c File: j906_2.smor2.wcnf
c optimal
c final solution cost: 55
c CPU time: 11.009395
s OPTIMUM FOUND


rcpsp/heur_output_or_constraints/Log=2/heurj90.txt
encoding rcpsp/j90.sm/j906_3.sm nv: 1438976 nc: 2999515 enctime: 31.18
encoding rcpsp/j90.sm/j906_3.sm nv: 219648 nc: 454774 enctime: 3.74
c File: j906_3.smnaiveor2.wcnf
c timeout
c final solution cost: 214
c CPU time: 64.991269
s UNKNOWN

c File: j906_3.smor2.wcnf
c timeout
c final solution cost: 68
c CPU time: 60.441352
s UNKNOWN


rcpsp/heur_output_or_constraints/Log=2/heurj90.txt
encoding rcpsp/j90.sm/j906_4.sm nv: 1674092 nc: 3436235 enctime: 35.60
encoding rcpsp/j90.sm/j906_4.sm nv: 225088 nc: 459123 enctime: 3.13
c File: j906_4.smnaiveor2.wcnf
c timeout
c final solution cost: 287
c CPU time: 64.714095
s UNKNOWN

c File: j906_4.smor2.wcnf
c optimal
c final solution cost: 55
c CPU time: 1.618676
s OPTIMUM FOUND


rcpsp/heur_output_or_constraints/Log=2/heurj90.txt
encoding rcpsp/j90.sm/j906_5.sm nv: 1545403 nc: 3200015 enctime: 30.54
encoding rcpsp/j90.sm/j906_5.sm nv: 226081 nc: 465095 enctime: 2.33
c File: j906_5.smnaiveor2.wcnf
c optimal
c final solution cost: 67
c CPU time: 13.021018
s OPTIMUM FOUND

c File: j906_5.smor2.wcnf
c optimal
c final solution cost: 67
c CPU time: 0.908275
s OPTIMUM FOUND


rcpsp/heur_output_or_constraints/Log=2/heurj90.txt
encoding rcpsp/j90.sm/j906_6.sm nv: 1556856 nc: 3227054 enctime: 30.65
encoding rcpsp/j90.sm/j906_6.sm nv: 219319 nc: 451524 enctime: 2.28
c File: j906_6.smnaiveor2.wcnf
c timeout
c final solution cost: 59
c CPU time: 64.630589
s UNKNOWN

c File: j906_6.smor2.wcnf
c timeout
c final solution cost: 60
c CPU time: 60.333759
s UNKNOWN


rcpsp/heur_output_or_constraints/Log=2/heurj90.txt
encoding rcpsp/j90.sm/j906_7.sm nv: 1787916 nc: 3657753 enctime: 31.10
encoding rcpsp/j90.sm/j906_7.sm nv: 235352 nc: 478596 enctime: 3.10
c File: j906_7.smnaiveor2.wcnf
c timeout
c final solution cost: 56
c CPU time: 64.593591
s UNKNOWN

c File: j906_7.smor2.wcnf
c timeout
c final solution cost: 57
c CPU time: 60.348579
s UNKNOWN


rcpsp/heur_output_or_constraints/Log=2/heurj90.txt
encoding rcpsp/j90.sm/j906_8.sm nv: 1690040 nc: 3491184 enctime: 33.13
encoding rcpsp/j90.sm/j906_8.sm nv: 227120 nc: 465918 enctime: 2.26
c File: j906_8.smnaiveor2.wcnf
c timeout
c final solution cost: 61
c CPU time: 64.824376
s UNKNOWN

c File: j906_8.smor2.wcnf
c timeout
c final solution cost: 62
c CPU time: 60.387759
s UNKNOWN


rcpsp/heur_output_or_constraints/Log=2/heurj90.txt
encoding rcpsp/j90.sm/j906_9.sm nv: 1699360 nc: 3498984 enctime: 34.33
encoding rcpsp/j90.sm/j906_9.sm nv: 216720 nc: 443194 enctime: 3.74
c File: j906_9.smnaiveor2.wcnf
c optimal
c final solution cost: 54
c CPU time: 12.668688
s OPTIMUM FOUND

c File: j906_9.smor2.wcnf
c optimal
c final solution cost: 54
c CPU time: 2.254876
s OPTIMUM FOUND


rcpsp/heur_output_or_constraints/Log=2/heurj90.txt
encoding rcpsp/j90.sm/j907_10.sm nv: 2051472 nc: 4228173 enctime: 42.80
encoding rcpsp/j90.sm/j907_10.sm nv: 291984 nc: 598301 enctime: 3.74
c File: j907_10.smnaiveor2.wcnf
c optimal
c final solution cost: 76
c CPU time: 7.296376
s OPTIMUM FOUND

c File: j907_10.smor2.wcnf
c optimal
c final solution cost: 76
c CPU time: 0.557653
s OPTIMUM FOUND


rcpsp/heur_output_or_constraints/Log=2/heurj90.txt
encoding rcpsp/j90.sm/j907_1.sm nv: 2185475 nc: 4435646 enctime: 36.91
encoding rcpsp/j90.sm/j907_1.sm nv: 322070 nc: 650921 enctime: 4.09
c File: j907_1.smnaiveor2.wcnf
c optimal
c final solution cost: 65
c CPU time: 7.173094
s OPTIMUM FOUND

c File: j907_1.smor2.wcnf
c optimal
c final solution cost: 65
c CPU time: 0.833576
s OPTIMUM FOUND


rcpsp/heur_output_or_constraints/Log=2/heurj90.txt
encoding rcpsp/j90.sm/j907_2.sm nv: 2013235 nc: 4098276 enctime: 34.94
encoding rcpsp/j90.sm/j907_2.sm nv: 215852 nc: 436395 enctime: 2.90
c File: j907_2.smnaiveor2.wcnf
c optimal
c final solution cost: 50
c CPU time: 7.291204
s OPTIMUM FOUND

c File: j907_2.smor2.wcnf
c optimal
c final solution cost: 50
c CPU time: 0.532217
s OPTIMUM FOUND


rcpsp/heur_output_or_constraints/Log=2/heurj90.txt
encoding rcpsp/j90.sm/j907_3.sm nv: 2005481 nc: 4104295 enctime: 35.77
encoding rcpsp/j90.sm/j907_3.sm nv: 277311 nc: 564535 enctime: 2.72
c File: j907_3.smnaiveor2.wcnf
c optimal
c final solution cost: 68
c CPU time: 7.041967
s OPTIMUM FOUND

c File: j907_3.smor2.wcnf
c optimal
c final solution cost: 68
c CPU time: 0.570420
s OPTIMUM FOUND


rcpsp/heur_output_or_constraints/Log=2/heurj90.txt
encoding rcpsp/j90.sm/j907_4.sm nv: 1639891 nc: 3366817 enctime: 34.20
encoding rcpsp/j90.sm/j907_4.sm nv: 280827 nc: 573817 enctime: 3.53
c File: j907_4.smnaiveor2.wcnf
c optimal
c final solution cost: 75
c CPU time: 5.678664
s OPTIMUM FOUND

c File: j907_4.smor2.wcnf
c optimal
c final solution cost: 75
c CPU time: 0.737898
s OPTIMUM FOUND


rcpsp/heur_output_or_constraints/Log=2/heurj90.txt
encoding rcpsp/j90.sm/j907_5.sm nv: 1727928 nc: 3532406 enctime: 30.62
encoding rcpsp/j90.sm/j907_5.sm nv: 248436 nc: 505193 enctime: 2.54
c File: j907_5.smnaiveor2.wcnf
c timeout
c final solution cost: 50
c CPU time: 64.209181
s UNKNOWN

c File: j907_5.smor2.wcnf
c timeout
c final solution cost: 50
c CPU time: 60.390238
s UNKNOWN


rcpsp/heur_output_or_constraints/Log=2/heurj90.txt
encoding rcpsp/j90.sm/j907_6.sm nv: 1665962 nc: 3418118 enctime: 32.63
encoding rcpsp/j90.sm/j907_6.sm nv: 205202 nc: 418058 enctime: 2.74
c File: j907_6.smnaiveor2.wcnf
c optimal
c final solution cost: 55
c CPU time: 5.749887
s OPTIMUM FOUND

c File: j907_6.smor2.wcnf
c optimal
c final solution cost: 55
c CPU time: 0.658005
s OPTIMUM FOUND


rcpsp/heur_output_or_constraints/Log=2/heurj90.txt
encoding rcpsp/j90.sm/j907_7.sm nv: 2047536 nc: 4162567 enctime: 34.45
encoding rcpsp/j90.sm/j907_7.sm nv: 303660 nc: 614515 enctime: 3.83
c File: j907_7.smnaiveor2.wcnf
c optimal
c final solution cost: 62
c CPU time: 6.945699
s OPTIMUM FOUND

c File: j907_7.smor2.wcnf
c optimal
c final solution cost: 62
c CPU time: 0.873875
s OPTIMUM FOUND


rcpsp/heur_output_or_constraints/Log=2/heurj90.txt
encoding rcpsp/j90.sm/j907_8.sm nv: 2192055 nc: 4437157 enctime: 35.51
encoding rcpsp/j90.sm/j907_8.sm nv: 252015 nc: 507301 enctime: 3.74
c File: j907_8.smnaiveor2.wcnf
c optimal
c final solution cost: 47
c CPU time: 7.650516
s OPTIMUM FOUND

c File: j907_8.smor2.wcnf
c optimal
c final solution cost: 47
c CPU time: 0.636507
s OPTIMUM FOUND


rcpsp/heur_output_or_constraints/Log=2/heurj90.txt
encoding rcpsp/j90.sm/j907_9.sm nv: 1627749 nc: 3367616 enctime: 31.00
encoding rcpsp/j90.sm/j907_9.sm nv: 218937 nc: 449648 enctime: 3.91
c File: j907_9.smnaiveor2.wcnf
c optimal
c final solution cost: 65
c CPU time: 8.399335
s OPTIMUM FOUND

c File: j907_9.smor2.wcnf
c optimal
c final solution cost: 65
c CPU time: 0.692716
s OPTIMUM FOUND


rcpsp/heur_output_or_constraints/Log=2/heurj90.txt
encoding rcpsp/j90.sm/j908_10.sm nv: 2053473 nc: 4166283 enctime: 35.81
encoding rcpsp/j90.sm/j908_10.sm nv: 300090 nc: 605938 enctime: 3.88
c File: j908_10.smnaiveor2.wcnf
c optimal
c final solution cost: 68
c CPU time: 5.733966
s OPTIMUM FOUND

c File: j908_10.smor2.wcnf
c optimal
c final solution cost: 68
c CPU time: 0.696586
s OPTIMUM FOUND


rcpsp/heur_output_or_constraints/Log=2/heurj90.txt
encoding rcpsp/j90.sm/j908_1.sm nv: 2484713 nc: 5068589 enctime: 42.88
encoding rcpsp/j90.sm/j908_1.sm nv: 300608 nc: 609704 enctime: 3.93
c File: j908_1.smnaiveor2.wcnf
c optimal
c final solution cost: 62
c CPU time: 8.261619
s OPTIMUM FOUND

c File: j908_1.smor2.wcnf
c optimal
c final solution cost: 62
c CPU time: 0.626150
s OPTIMUM FOUND


rcpsp/heur_output_or_constraints/Log=2/heurj90.txt
encoding rcpsp/j90.sm/j908_2.sm nv: 1784102 nc: 3609082 enctime: 34.28
encoding rcpsp/j90.sm/j908_2.sm nv: 268254 nc: 540362 enctime: 3.74
c File: j908_2.smnaiveor2.wcnf
c optimal
c final solution cost: 60
c CPU time: 5.005578
s OPTIMUM FOUND

c File: j908_2.smor2.wcnf
c optimal
c final solution cost: 60
c CPU time: 0.497808
s OPTIMUM FOUND


rcpsp/heur_output_or_constraints/Log=2/heurj90.txt
encoding rcpsp/j90.sm/j908_3.sm nv: 2453993 nc: 4957643 enctime: 41.70
encoding rcpsp/j90.sm/j908_3.sm nv: 267067 nc: 536485 enctime: 2.72
c File: j908_3.smnaiveor2.wcnf
c optimal
c final solution cost: 52
c CPU time: 8.472497
s OPTIMUM FOUND

c File: j908_3.smor2.wcnf
c optimal
c final solution cost: 52
c CPU time: 0.606576
s OPTIMUM FOUND


rcpsp/heur_output_or_constraints/Log=2/heurj90.txt
encoding rcpsp/j90.sm/j908_4.sm nv: 2587200 nc: 5278112 enctime: 49.42
encoding rcpsp/j90.sm/j908_4.sm nv: 307200 nc: 623112 enctime: 4.20
c File: j908_4.smnaiveor2.wcnf
c optimal
c final solution cost: 62
c CPU time: 9.754917
s OPTIMUM FOUND

c File: j908_4.smor2.wcnf
c optimal
c final solution cost: 62
c CPU time: 0.917954
s OPTIMUM FOUND


rcpsp/heur_output_or_constraints/Log=2/heurj90.txt
encoding rcpsp/j90.sm/j908_5.sm nv: 2696265 nc: 5435640 enctime: 48.25
encoding rcpsp/j90.sm/j908_5.sm nv: 256009 nc: 513016 enctime: 3.83
c File: j908_5.smnaiveor2.wcnf
c optimal
c final solution cost: 46
c CPU time: 7.868396
s OPTIMUM FOUND

c File: j908_5.smor2.wcnf
c optimal
c final solution cost: 46
c CPU time: 0.556319
s OPTIMUM FOUND


rcpsp/heur_output_or_constraints/Log=2/heurj90.txt
encoding rcpsp/j90.sm/j908_6.sm nv: 2814870 nc: 5677627 enctime: 53.17
encoding rcpsp/j90.sm/j908_6.sm nv: 312144 nc: 626377 enctime: 4.76
c File: j908_6.smnaiveor2.wcnf
c optimal
c final solution cost: 54
c CPU time: 10.688012
s OPTIMUM FOUND

c File: j908_6.smor2.wcnf
c optimal
c final solution cost: 54
c CPU time: 0.835902
s OPTIMUM FOUND


rcpsp/heur_output_or_constraints/Log=2/heurj90.txt
encoding rcpsp/j90.sm/j908_7.sm nv: 2418930 nc: 4911320 enctime: 45.20
encoding rcpsp/j90.sm/j908_7.sm nv: 260865 nc: 526485 enctime: 4.76
c File: j908_7.smnaiveor2.wcnf
c optimal
c final solution cost: 54
c CPU time: 8.610313
s OPTIMUM FOUND

c File: j908_7.smor2.wcnf
c optimal
c final solution cost: 54
c CPU time: 0.476869
s OPTIMUM FOUND


rcpsp/heur_output_or_constraints/Log=2/heurj90.txt
encoding rcpsp/j90.sm/j908_8.sm nv: 2798148 nc: 5646338 enctime: 49.58
encoding rcpsp/j90.sm/j908_8.sm nv: 312144 nc: 626608 enctime: 5.43
c File: j908_8.smnaiveor2.wcnf
c optimal
c final solution cost: 55
c CPU time: 8.279642
s OPTIMUM FOUND

c File: j908_8.smor2.wcnf
c optimal
c final solution cost: 55
c CPU time: 0.650543
s OPTIMUM FOUND


rcpsp/heur_output_or_constraints/Log=2/heurj90.txt
encoding rcpsp/j90.sm/j908_9.sm nv: 2540154 nc: 5176698 enctime: 49.99
encoding rcpsp/j90.sm/j908_9.sm nv: 374240 nc: 759215 enctime: 5.47
c File: j908_9.smnaiveor2.wcnf
c optimal
c final solution cost: 78
c CPU time: 8.213687
s OPTIMUM FOUND

c File: j908_9.smor2.wcnf
c optimal
c final solution cost: 78
c CPU time: 0.808065
s OPTIMUM FOUND


rcpsp/heur_output_or_constraints/Log=2/heurj90.txt
encoding rcpsp/j90.sm/j909_10.sm nv: 1833304 nc: 3793055 enctime: 36.58
encoding rcpsp/j90.sm/j909_10.sm nv: 449196 nc: 926678 enctime: 6.63
c File: j909_10.smnaiveor2.wcnf
c timeout
c final solution cost: 114
c CPU time: 65.283030
s UNKNOWN

c File: j909_10.smor2.wcnf
c timeout
c CPU time: 60.713478
s UNKNOWN


rcpsp/heur_output_or_constraints/Log=2/heurj90.txt
encoding rcpsp/j90.sm/j909_1.sm nv: 1756800 nc: 3621645 enctime: 33.28
encoding rcpsp/j90.sm/j909_1.sm nv: 428220 nc: 880269 enctime: 6.98
c File: j909_1.smnaiveor2.wcnf
c timeout
c final solution cost: 109
c CPU time: 64.867502
s UNKNOWN

c File: j909_1.smor2.wcnf
c timeout
c final solution cost: 108
c CPU time: 60.808035
s UNKNOWN


rcpsp/heur_output_or_constraints/Log=2/heurj90.txt
encoding rcpsp/j90.sm/j909_2.sm nv: 1837668 nc: 3823442 enctime: 35.78
encoding rcpsp/j90.sm/j909_2.sm nv: 480459 nc: 996794 enctime: 8.68
c File: j909_2.smnaiveor2.wcnf
c timeout
c final solution cost: 238
c CPU time: 65.404887
s UNKNOWN

c File: j909_2.smor2.wcnf
c timeout
c CPU time: 60.844573
s UNKNOWN


rcpsp/heur_output_or_constraints/Log=2/heurj90.txt
encoding rcpsp/j90.sm/j909_3.sm nv: 1725977 nc: 3557486 enctime: 30.34
encoding rcpsp/j90.sm/j909_3.sm nv: 408688 nc: 839878 enctime: 4.93
c File: j909_3.smnaiveor2.wcnf
c timeout
c final solution cost: 110
c CPU time: 64.679853
s UNKNOWN

c File: j909_3.smor2.wcnf
c timeout
c CPU time: 60.686279
s UNKNOWN


rcpsp/heur_output_or_constraints/Log=2/heurj90.txt
encoding rcpsp/j90.sm/j909_4.sm nv: 1746944 nc: 3631558 enctime: 37.84
encoding rcpsp/j90.sm/j909_4.sm nv: 477680 nc: 990358 enctime: 6.54
c File: j909_4.smnaiveor2.wcnf
c timeout
c final solution cost: 129
c CPU time: 64.944950
s UNKNOWN

c File: j909_4.smor2.wcnf
c timeout
c final solution cost: 129
c CPU time: 60.929998
s UNKNOWN


rcpsp/heur_output_or_constraints/Log=2/heurj90.txt
encoding rcpsp/j90.sm/j909_5.sm nv: 1551396 nc: 3243747 enctime: 30.21
encoding rcpsp/j90.sm/j909_5.sm nv: 491832 nc: 1025852 enctime: 6.40
c File: j909_5.smnaiveor2.wcnf
c timeout
c final solution cost: 146
c CPU time: 64.744448
s UNKNOWN

c File: j909_5.smor2.wcnf
c timeout
c final solution cost: 146
c CPU time: 61.026386
s UNKNOWN


rcpsp/heur_output_or_constraints/Log=2/heurj90.txt
encoding rcpsp/j90.sm/j909_6.sm nv: 1768348 nc: 3669735 enctime: 33.69
encoding rcpsp/j90.sm/j909_6.sm nv: 462973 nc: 958110 enctime: 6.41
c File: j909_6.smnaiveor2.wcnf
c timeout
c final solution cost: 121
c CPU time: 65.072905
s UNKNOWN

c File: j909_6.smor2.wcnf
c timeout
c final solution cost: 125
c CPU time: 60.872397
s UNKNOWN


rcpsp/heur_output_or_constraints/Log=2/heurj90.txt
encoding rcpsp/j90.sm/j909_7.sm nv: 1748428 nc: 3626067 enctime: 37.30
encoding rcpsp/j90.sm/j909_7.sm nv: 431024 nc: 891203 enctime: 5.99
c File: j909_7.smnaiveor2.wcnf
c timeout
c final solution cost: 113
c CPU time: 64.656722
s UNKNOWN

c File: j909_7.smor2.wcnf
c timeout
c final solution cost: 113
c CPU time: 60.729159
s UNKNOWN


rcpsp/heur_output_or_constraints/Log=2/heurj90.txt
encoding rcpsp/j90.sm/j909_8.sm nv: 1714330 nc: 3561678 enctime: 30.37
encoding rcpsp/j90.sm/j909_8.sm nv: 461025 nc: 955244 enctime: 5.66
c File: j909_8.smnaiveor2.wcnf
c timeout
c final solution cost: 123
c CPU time: 64.660518
s UNKNOWN

c File: j909_8.smor2.wcnf
c timeout
c final solution cost: 119
c CPU time: 60.797293
s UNKNOWN


rcpsp/heur_output_or_constraints/Log=2/heurj90.txt
encoding rcpsp/j90.sm/j909_9.sm nv: 1625272 nc: 3364308 enctime: 28.78
encoding rcpsp/j90.sm/j909_9.sm nv: 433182 nc: 894218 enctime: 5.23
c File: j909_9.smnaiveor2.wcnf
c timeout
c final solution cost: 119
c CPU time: 64.492940
s UNKNOWN

c File: j909_9.smor2.wcnf
c timeout
c final solution cost: 123
c CPU time: 60.763806
s UNKNOWN


